%block LATTICE_CART
 12.7545697   0.0000000   0.1974926
  0.0000000   6.3217144   0.0000000
 -3.8688795   0.0000000  12.0434278
%endblock LATTICE_CART

%block POSITIONS_ABS
H        0.910836095      4.401193743      0.911212137
H       -0.334526555      1.427637860      1.574979524
H        0.286426352      0.012537725      1.864742296
H        5.860406876      2.690133501      2.208631186
H        0.592867629      4.200872772      2.473380014
H        5.607575364      5.663131754      2.577996747
H        5.212554560      2.502274548      3.641209707
H       10.227262294      1.040015565      3.745826440
H        4.959723049      5.850990706      4.010575267
H       10.533703572      3.173394931      4.354464157
H       11.154656479      4.588495066      4.644226929
H        9.909293829      1.240336537      5.307994317
H       -1.023603669      5.081377875      6.932926022
H       -2.268966320      1.733219345      7.596693410
H       -1.648013413      3.148319481      7.886456183
H        3.925967111      0.470723705      8.230345073
H       -1.341572134      5.281698846      8.495093901
H        3.673135600      3.819439864      8.599710632
H        3.278114797      0.658582659      9.662923594
H        8.292822531      2.120841640      9.767540326
H        3.025283284      3.631580911     10.032289154
H        8.599263808      6.309176687     10.376178045
H        9.220216716      4.894076551     10.665940816
H        7.974854064      1.920520669     11.329708204
O        3.048695933      3.242677002      0.438181070
O        7.341961435      2.764908868      1.344255608
O        0.264442621      4.635522527      1.636458318
O        8.144576282      0.115194502      1.888413573
O       10.196282091      0.587958544      1.916861910
O        0.354732999      0.979783618      2.089048995
O        8.454497401      2.879127204      2.325056945
O        4.993386699      2.521808086      2.677796886
O        5.826743226      5.682665291      3.541409568
O        2.365632523      6.039984409      3.894149509
O       10.465396926      4.140640824      4.130157459
O        1.061445429      3.457843620      4.026195347
O        2.516000229      3.186311017      4.127552802
O       10.555687302      1.474665321      4.582748135
O        7.134182486      3.014773669      5.429761198
O        7.771433991      0.081819796      5.781025384
O        0.115603427      5.450649531      5.689587630
O        8.770086733      0.871064881      6.551332709
O        1.114256168      6.239894616      6.459894955
O        1.212138567      3.494517279      6.631089370
O        3.119922069      4.107787595      6.712388194
O        5.443631624      0.500897867      7.157557694
O       -1.669997142      4.847049091      7.658172206
O        6.369689931      3.135403395      8.113367538
O        7.824244731      2.863870792      8.214724994
O       -1.579706765      2.181073588      8.110762882
O        7.079382216      0.531948517      8.638776567
O        3.058946935      0.639049120      8.699510773
O        3.892303462      3.799906327      9.563123454
O        0.431192759      3.442587209      9.915863395
O        8.530957162      5.341930794     10.151871344
O       -0.872994336      6.024727998     10.047909233
O        0.581560465      6.296260601     10.149266689
O        8.621247539      1.686191884     10.604462021
O        3.882411240      0.848742004     11.396834093
O        5.199742723      0.146083537     11.451475083
O        5.836994228      3.079037411     11.802739270
O       -1.818836336      4.031922087     11.711301517
Na       7.470985053      4.897303279      0.291940654
Na      10.600062134      4.384178364      1.715381803
Na       2.723947477      1.506377866      2.273614605
Na       3.485276136      4.469079288      2.448147317
Na       7.334853788      1.308222082      3.771059136
Na       8.096182447      4.667235073      3.945591847
Na       0.220067790      1.223321157      4.503824650
Na       3.349144872      1.736446073      5.927265799
Na       5.536545289      4.585268339      6.313654541
Na       8.665622371      5.098393254      7.737095690
Na       0.789507713      1.654479339      8.295328493
Na       1.550836371      5.013492330      8.469861205
Na       5.400414024      1.852635124      9.792773023
Na       6.161742683      4.815336545      9.967305734
Na      -1.714371974      1.937536048     10.525538536
Na       1.414705107      1.424411133     11.948979686
Ti       8.898565363      1.541793203      0.881806240
Ti       1.921564561      4.702650409      5.337400213
Ti       6.964125598      1.619064002      6.903520127
Ti      -0.012875203      4.779921209     11.359114099
C        5.890521832      0.016483431      8.299721766
O        5.299781934     -0.800251763      8.914600780
C        9.249655002     -0.210040350      2.282827176
O        9.426308121     -1.100368077      3.018223051
C        2.207017467      3.500103325      7.187554118
O        2.283642583      2.828580281      8.160480756
O       -0.896798964      6.119279332     12.120819508
O        0.943923048      5.420947345     12.776608097
C       -0.017777832      6.125827837     12.850337028
O        0.017118075      7.060434253     13.572576643
%endblock POSITIONS_ABS

KPOINT_MP_GRID 1 1 1

symmetry_generate

%BLOCK SPECIES_POT
NCP
%ENDBLOCK SPECIES_POT
