%BLOCK lattice_cart
       13.2612855804194       0.519158891058202        1.66856577891099    
      0.197619090082696        6.60434371243899      -0.184530324664166    
      -2.94164818800272      -0.756505372517027        12.5670419323150    
%ENDBLOCK lattice_cart
 
%BLOCK positions_frac
   H              0.106585949518321       0.632302812266195       0.081066481994047
   H             -0.022724832921955       0.159621116014490       0.081379624202199
   H              0.051207789861361      -0.030552499923779       0.078119704937776
   H              0.548877449827866       0.623445557825239       0.180646749241032
   H              0.092982089705509       0.718452889882104       0.199597017661514
   H              0.444583868817671       1.082409479121766       0.207649445366510
   H              0.503854681582041       0.771668415645707       0.267872763073850
   H              0.956923272471015       0.095946782638946       0.316384366189806
   H              0.398286197705567       1.040327452326056       0.309828557934628
   H              0.947566196738369       0.421129253073280       0.339777739323493
   H              1.008724118582385       0.609022329200469       0.332042157141661
   H              0.949876388217509       0.147711486356909       0.435196876807762
   H              0.068409088569384       0.766941686906717       0.598908015927088
   H              0.099432269994372       0.153568372591168       0.623015694830725
   H              0.079586341980013       0.384467717828857       0.657635456456073
   H              0.463235936563273      -0.023202665638291       0.745754777567165
   H              0.065312809479040       0.720411122990133       0.718525885491733
   H              0.565373459547847       0.722924860179270       0.763090345556050
   H              0.404112921355058      -0.063108714205217       0.841171974512828
   H              0.884986160278638       0.350055238285086       0.767819788635457
   H              0.519834995284199       0.684083880895571       0.866226789279898
   H              0.903717949866715       1.038056219588917       0.834293627123548
   H              0.974098586842867       0.842954989200607       0.853692613715833
   H              0.872734642448620       0.378262871955712       0.890113118623900
   C              0.622846939142824      -0.026622631015374       0.646904411560906
   C              0.808376561460252       0.110796518252701       0.179490645201328
   C              0.354197446650175       0.478234891298145       0.525394024944905
   C              0.368756306617686       0.926639963300496       1.031780285887353
   O              0.283532801264799       0.475316881961531       0.039579043307648
   O              0.635514119126317       0.614280869189491       0.107038010811269
   O              0.063604661185163       0.723885177641633       0.125679075614900
   O              0.711240947367300       0.143629112054315       0.179834288319687
   O              0.852449908743493       0.229552525465759       0.123252366204846
   O              0.044267870140213       0.112135538649197       0.059821144837773
   O              0.725754054916577       0.573817425741996       0.180298835591877
   O              0.499997634181048       0.631757846278085       0.236175862834341
   O              0.462837033050715       1.074290022162879       0.283546344029647
   O              0.301309726909209       0.942084292027156       0.357157928945988
   O              0.939407250602313       0.562171422751524       0.318807932901209
   O              0.131934818495354       0.682268021782013       0.329028069873537
   O              0.217725612404539       0.531712877234571       0.314877971152571
   O              0.989640657613612       0.177956299746336       0.376801078724328
   O              0.696988690134295       0.378736915743003       0.450162368843316
   O              0.798541244339013      -0.037045638512773       0.499755474591265
   O              0.161211080332842       0.941852562550094       0.519093428050535
   O              0.882594229359907       0.099045608755510       0.531057252705341
   O              0.267000067067227       0.926543777885686       0.568243407808997
   O              0.256866612280753       0.491767365094138       0.532175051843018
   O              0.388849701104939       0.612202618761162       0.471002423444399
   O              0.616203001212231       0.088488068844260       0.569034324768066
   O              0.043387439622160       0.674406732921784       0.644075754710883
   O              0.712856341671954       0.429702514196337       0.671041537551078
   O              0.819766574473242       0.442004920495266       0.654136308737624
   O              0.110864090413545       0.256657841487171       0.681704723341942
   O              0.700253614288526      -0.028619835367403       0.714084404539680
   O              0.411881222316077       0.037308606100988       0.790946157014584
   O              0.577660485455942       0.647771394952015       0.827282236654253
   O              0.295249861572814       0.495412818284540       0.820477777829248
   O              0.905168875509028       0.887127233563429       0.828283229581213
   O              0.114175073027595       0.754323571044411       0.848247659574323
   O              0.194096753025151       0.899980672820954       0.846598232363987
   O              0.912889946632524       0.300533086297728       0.836508746338605
   O              0.605281794206282       0.266088052008825       0.969012207123190
   O              0.693791638347707       0.117996455032726       0.961400258063710
   O              0.789944758023418       0.502752613060519       0.968713053916922
   O              0.175354119510820       0.473536998175104       0.997244881990780
   O              0.545694101708559      -0.138652705296425       0.653240324949628
   O              0.859057537045484      -0.028099371506461       0.227749250599700
   O              0.412750249194379       0.346132385412932       0.570752449449432
   O              0.284054277858452       0.911110907041276       1.069236006684724
   O              0.387698775854953       0.797752151476193       0.950368010174036
   O              0.432100984979747       1.059107956072199       1.068775899641587
   Na             0.602106288944897       0.951018547621039       0.064874755812573
   Na             0.896551336750064       0.640301981847200       0.138497027795491
   Na             0.204778485900806       0.224930903238704       0.122538970230560
   Na             0.318506618700889       0.682871843772300       0.203296447361169
   Na             0.609154292641472       0.330886405946784       0.294727435394887
   Na             0.792591941082102       0.764724649637026       0.341872165322471
   Na             0.168368426545479       0.238141960195521       0.411892897818666
   Na             0.442945250843659       0.006672891721928       0.506448344110531
   Na             0.564325784475077       0.522633605668626       0.557139851371586
   Na             0.859673562822945       0.782863631629163       0.642808490553283
   Na             0.292114846969662       0.234018964369258       0.685238999114025
   Na             0.244063572358092       0.711905048518310       0.690020683111495
   Na             0.680983426684371       0.303736371324434       0.816948801323721
   Na             0.745593555913740       0.788241938337322       0.866286915178554
   Na             0.089507101752438       0.208095149752480       0.873514934881859
   Na             0.424498066329536       0.309146186442167       0.933565597038521
   Ti             0.722935306675375       0.380453053361757       0.052427675676503
   Ti             0.247877607542612       0.767755949834146       0.426975207376768
   Ti             0.750070356052319       0.240709105969985       0.551026641281334
   Ti             0.246124364662702       0.653435619093773       0.918850487129905
%ENDBLOCK positions_frac

%block SPECIES_POT
NCP
%endblock SPECIES_POT

!SYMMETRY_GENERATE

KPOINT_MP_GRID 1 1 1

%block PHONON_KPOINT_LIST  
    0.0   0.0   0.0    1.0        ! Wavevector of phonon(s) to compute ( qx qy qz, weight)  
%endblock PHONON_KPOINT_LIST 
