%block LATTICE_CART
 12.1470000   0.0000000   0.0000000
  0.0000000   6.1547700   0.0000000
 -3.8711204   0.0000000  12.0470142
%endblock LATTICE_CART

%block POSITIONS_ABS
  H  0.802784202  4.256055731  0.912538874
  H -0.409175898  1.541086664  1.499510181
  H  0.187525857  0.120347471  1.804855320
  H  5.517396481  2.667304466  2.104338164
  H  0.480207976  4.104505799  2.497088020
  H  5.295105557  5.553539970  2.448602405
  H  4.916334227  2.476154969  3.574904678
  H  9.731231807  1.027120798  3.526419064
  H  4.694043303  5.744689466  3.919168919
  H  10.023913927  3.197732472  4.218651763
  H  10.620615681  4.618471665  4.523996902
  H  9.408655581  1.178670730  5.110968209
  H -1.132776016  4.976099271  6.936045956
  H -2.344736117  1.536298336  7.523017263
  H -1.748034363  2.957037530  7.828362403
  H  3.581836262  0.410080535  8.127845247
  H -1.455352242  5.127649203  8.520595103
  H  3.359545338  3.678615032  8.472109487
  H  2.980774009  0.601230032  9.598411761
  H  7.795671589  2.050264202  9.549926146
  H  2.758483083  3.487465535  9.942676002
  H  8.088353708  6.034422530  10.242158847
  H  8.685055463  4.613683337  10.547503985
  H  7.473095362  1.898714271  11.134475292
  O  10.261443471  2.309392799  0.377192013
  O  2.923466735  3.154196531  0.466701329
  O  3.398512141  6.019672800  0.761250825
  O  4.772716634  5.388808875  0.797873748
  O  6.925402484  2.661691835  1.143020704
  O  0.198180196  4.547821102  1.646826836
  O  7.908243358  0.006770247  1.909933625
  O  9.374398927  0.337958421  1.993058023
  O  0.273042738  1.084470474  2.016790641
  O  8.055841002  2.857844355  2.124611418
  O  4.676809924  2.498713526  2.611431261
  O  5.534629860  5.576098526  3.412075823
  O  2.155598782  5.935229355  3.898895665
  O  9.938397046  4.161855475  4.006716442
  O  0.837040857  3.415343422  4.030449060
  O  2.303196426  3.084155248  4.113573457
  O  10.013259587  1.470436101  4.376680247
  O  3.286037300  5.739076835  4.880486379
  O  5.438723149  2.311423874  5.225633335
  O  6.812927643  2.942287800  5.262256258
  O  7.287973048  0.076811530  5.556805754
  O -0.050003688  5.386777800  5.646315069
  O  8.325883253  0.767992201  6.400699096
  O  0.987906516  6.077958471  6.490208411
  O  1.462951921  3.212482202  6.784757908
  O  2.837156416  3.843346128  6.821380831
  O  4.989842266  0.415693166  7.166527787
  O -1.737380022  4.684333900  7.670333920
  O  5.972683139  3.070614754  7.933440709
  O  7.438838708  2.739426580  8.016565107
  O -1.662517481  1.992914526  8.040297725
  O  6.120280782  0.219540646  8.148118502
  O  2.741249706  0.578671475  8.634938344
  O  3.599069641  3.656056476  9.435582905
  O  0.220038563  3.296925647  9.922402748
  O  8.002836828  5.070299527  10.030223524
  O -1.098519362  5.816811580  10.053956142
  O  0.367636207  6.147999754  10.137080540
  O  8.077699369  1.606948899  10.400187329
  O  1.350477080  3.493078167  10.903993462
  O  3.503162931  0.765961127  11.249140417
  O  4.877367425  0.135097201  11.285763340
  O  5.352412830  3.000573471  11.580312837
  O -1.985563906  3.845377202  11.669822152
 Na  7.128159168  4.717877397  0.094328121
 Na  10.020589536  4.321140923  1.555028588
 Na  2.548344811  1.501640785  2.247611432
 Na  3.203071835  4.408230918  2.445302935
 Na  7.008367949  1.330845917  3.578204148
 Na  7.663094973  4.579025786  3.775895650
 Na  0.190850248  1.243755922  4.468478494
 Na  3.083280616  1.640492396  5.929178962
 Na  5.192598950  4.514277605  6.117835204
 Na  8.085029318  4.911014079  7.578535672
 Na  0.612784592  1.575744215  8.271118516
 Na  1.267511615  4.823924084  8.468810019
 Na  5.072807730  1.746539083  9.601711231
 Na  5.727534754  4.653129216  9.799402733
 Na -1.744709971  1.833629078  10.491985577
 Na  1.147720396  1.436892604  11.952686045
 Ti  8.496408420  1.508164841  0.687402628
 Ti  1.715031364  4.585549842  5.336104455
 Ti  6.560848200  1.569220159  6.710909711
 Ti -0.220528855  4.646605160  11.359611537
%endblock POSITIONS_ABS

KPOINT_MP_GRID 1 1 1

symmetry_generate

%BLOCK SPECIES_POT
NCP
%ENDBLOCK SPECIES_POT
