%BLOCK lattice_cart
       12.7545696830278        0.00000000000000       0.197492567110744    
       0.00000000000000        6.32171440929035        0.00000000000000    
      -3.86887948734771        0.00000000000000        12.0434278052652    
%ENDBLOCK lattice_cart
 
%BLOCK positions_frac
   H              0.093895798777403       0.696202557957256       0.074120792554833
   H              0.013373854498725       0.225830805929457       0.130555711594944
   H              0.069079639289253       0.001983279232633       0.153702053162913
   H              0.512553427550233       0.425538600176897       0.174983877318326
   H              0.108240351698431       0.664514797544304       0.203596798895442
   H              0.502085734646320       0.895822143527599       0.205825001440559
   H              0.497914263586768       0.395822143365123       0.294174997148303
   H              0.891759646478785       0.164514797381828       0.296403199776428
   H              0.487446570682855       0.925538600176896       0.325016121270536
   H              0.930920358943834       0.501983279395109       0.346297945425949
   H              0.986626143652038       0.725830806091932       0.369444286993918
   H              0.906104199373360       0.196202557794780       0.425879206034029
   H              0.093895796819387       0.803797442367696       0.574120791060687
   H              0.013373852458384       0.274169194070543       0.630555710100798
   H              0.069079637193041       0.498016720929843       0.653702051751776
   H              0.512553425536346       0.074461399985579       0.674983875907189
   H              0.108240349766869       0.835485202780648       0.703596797484303
   H              0.502085732605979       0.604177856797353       0.705824999946413
   H              0.497914261655206       0.104177856797353       0.794174995737165
   H              0.891759644520769       0.335485202618172       0.796403198282283
   H              0.487446568586643       0.574461399985580       0.825016119859398
   H              0.930920356956401       0.998016720929843       0.846297944097819
   H              0.986626141720476       0.774169194233020       0.869444285582781
   H              0.906104197359473       0.303797442367696       0.925879204622892
   O              0.848389168651977       0.362210656117859       0.030063556115866
   O              0.248826319141385       0.512942659435678       0.032303072483618
   O              0.307344986162040       0.976891784940678       0.060509924366791
   O              0.411486289131630       0.865741799361428       0.063339173444263
   O              0.606474306792233       0.437366936882292       0.101672170037664
   O              0.061643338508530       0.733269842054139       0.134868929588630
   O              0.700269299197882       0.004026409484666       0.162192666406780
   O              0.816286912866194       0.046978777397980       0.168706164129063
   O              0.080030153847718       0.154987010476963       0.172147304517675
   O              0.717849802890589       0.455434557280398       0.181284512957279
   O              0.456670859087834       0.398912054916324       0.214856420223865
   O              0.543329139171707       0.898912054916323       0.285143578448005
   O              0.282150195342498       0.955434557280398       0.318715485631584
   O              0.919969844385369       0.654987010639439       0.327852694071187
   O              0.183713085366893       0.546978777560455       0.331293834459799
   O              0.299730699008752       0.504026409647142       0.337807332099074
   O              0.938356659642233       0.233269841891664       0.365131069000232
   O              0.393525691440855       0.937366936882292       0.398327828551198
   O              0.588513709019133       0.365741799198952       0.436660825144599
   O              0.692655012071048       0.476891784940678       0.439490074222071
   O              0.751173679009378       0.012942659273202       0.467696926105244
   O              0.151610829472332       0.862210656280335       0.469936442389988
   O              0.848389166720415       0.137789343882141       0.530063554704728
   O              0.248826317101044       0.987057340889274       0.532303070989472
   O              0.307344984065828       0.523108215384274       0.560509922955653
   O              0.411486287200068       0.634258201125999       0.563339172033125
   O              0.606474304860671       0.062633063280184       0.601672168626526
   O              0.061643336603422       0.766730158270812       0.634868928260501
   O              0.700269297210449       0.495973590677810       0.662192665078650
   O              0.816286910878761       0.453021222764496       0.668706162800933
   O              0.080030151860285       0.345012989523037       0.672147303189545
   O              0.717849800820831       0.044565442882078       0.681284511629149
   O              0.456670857156272       0.101087945246152       0.714856418812728
   O              0.543329137131367       0.601087945408629       0.785143576953859
   O              0.282150193328611       0.544565443044554       0.818715484220445
   O              0.919969842427353       0.845012989685513       0.827852692577041
   O              0.183713083326553       0.953021222764496       0.831293832965653
   O              0.299730696994865       0.995973590677809       0.837807330687936
   O              0.938356657684217       0.266730158108337       0.865131067506086
   O              0.393525689344643       0.562633063442660       0.898327827140060
   O              0.588513707061117       0.134258200963523       0.936660823650453
   O              0.692655010113032       0.023108215221798       0.939490072727925
   O              0.751173677077816       0.487057340889274       0.967696924694106
   O              0.151610827540770       0.637789344044617       0.969936440978850
   Na             0.590167075933994       0.774679613948025       0.014562884101147
   Na             0.869956859087750       0.693510981171652       0.128167147580319
   Na             0.269490492383604       0.238286288894754       0.184365470658084
   Na             0.333259834334956       0.706941028614110       0.197811704046411
   Na             0.666740163898131       0.206941028451634       0.302188294542451
   Na             0.730509505823030       0.738286289057230       0.315634527847770
   Na             0.130043139118883       0.193510981009177       0.371832850925535
   Na             0.409832922299094       0.274679613785549       0.485437114487716
   Na             0.590167074002432       0.725320386376927       0.514562882690009
   Na             0.869956857182642       0.806489019153300       0.628167146252189
   Na             0.269490490396170       0.261713711105246       0.684365469329954
   Na             0.333259832265198       0.793058971710841       0.697811702718282
   Na             0.666740161884244       0.293058971548366       0.802188293131312
   Na             0.730509503809143       0.761713711267722       0.815634526436632
   Na             0.130043137104996       0.306489018990823       0.871832849514397
   Na             0.409832920202882       0.225320386214451       0.985437113076577
   Ti             0.716323221885253       0.243888461723298       0.061472343255555
   Ti             0.283676776347834       0.743888461885774       0.438527655333307
   Ti             0.716323219789041       0.256111538276702       0.561472341844417
   Ti             0.283676774307494       0.756111538439177       0.938527653839161
%ENDBLOCK positions_frac

%block SPECIES_POT
NCP
%endblock SPECIES_POT

!SYMMETRY_GENERATE

KPOINT_MP_GRID 1 1 1

%block PHONON_KPOINT_LIST  
    0.0   0.0   0.0    1.0        ! Wavevector of phonon(s) to compute ( qx qy qz, weight)  
%endblock PHONON_KPOINT_LIST 
